# Random Circle Problem
param d := 0.05; 
param n := 10; 
param radius := 2.00; 
param v0 := 
1 5.44
2 5.40
3 5.84
4 5.25
5 5.38
6 5.33
7 4.97
8 5.22
9 5.75
10 5.39
;
param cap := 
1 3.47156
2 3.79461
3 4.12433
4 5.44722
5 5.19375
6 6.19824
7 0.22087
8 1.16206
9 2.18797
10 2.65348
;
param x0 := 
1 2.00
2 1.62
3 0.62
4 -0.62
5 -1.62
6 -2.00
7 -1.62
8 -0.62
9 0.62
10 1.62
;
param y0 := 
1 -0.00
2 1.18
3 1.90
4 1.90
5 1.18
6 0.00
7 -1.18
8 -1.90
9 -1.90
10 -1.18
;
